
Gurobi 10.0.1 (linux64) logging started Sun Nov 26 15:37:22 2023

Set parameter LogFile to value "ArtificialInstance/ExperimentV2/S4T5K2/BaRo/gurobi1.txt"
Gurobi Optimizer version 10.0.1 build v10.0.1rc0 (linux64)

CPU model: AMD EPYC 7H12 64-Core Processor, instruction set [SSE2|AVX|AVX2]
Thread count: 128 physical cores, 128 logical processors, using up to 32 threads

Academic license 656792 - for non-commercial use only - registered to b.___@student.vu.nl
Optimize a model with 4524 rows, 6801 columns and 23684 nonzeros
Model fingerprint: 0x44e489c3
Variable types: 1 continuous, 6800 integer (6800 binary)
Coefficient statistics:
  Matrix range     [1e+00, 4e+01]
  Objective range  [1e+00, 2e+01]
  Bounds range     [1e+00, 1e+00]
  RHS range        [1e+00, 1e+00]
Presolve time: 0.03s
Presolved: 4524 rows, 6801 columns, 23684 nonzeros
Variable types: 1 continuous, 6800 integer (6800 binary)
Found heuristic solution: objective 393.6078879

Root relaxation: objective 4.910692e+01, 5514 iterations, 0.35 seconds (0.32 work units)

    Nodes    |    Current Node    |     Objective Bounds      |     Work
 Expl Unexpl |  Obj  Depth IntInf | Incumbent    BestBd   Gap | It/Node Time

     0     0   49.10692    0  795  393.60789   49.10692  87.5%     -    0s
H    0     0                     363.0659593   49.10692  86.5%     -    0s
H    0     0                      81.1917306   49.10692  39.5%     -    0s
     0     0   53.87119    0 1163   81.19173   53.87119  33.6%     -    0s
H    0     0                      81.0459503   53.87119  33.5%     -    0s
     0     0   58.13099    0 1343   81.04595   58.13099  28.3%     -    1s
     0     0   58.16811    0 1350   81.04595   58.16811  28.2%     -    1s
     0     0   58.16813    0 1350   81.04595   58.16813  28.2%     -    1s
H    0     0                      73.9064412   60.81016  17.7%     -    2s
     0     0   60.81016    0 1087   73.90644   60.81016  17.7%     -    2s
H    0     0                      72.3678290   60.81016  16.0%     -    2s
     0     0   60.85142    0 1105   72.36783   60.85142  15.9%     -    2s
     0     0   60.85199    0 1086   72.36783   60.85199  15.9%     -    2s
     0     0   61.26250    0 1250   72.36783   61.26250  15.3%     -    2s
H    0     0                      68.2013317   61.35838  10.0%     -    2s
     0     0   61.35838    0 1370   68.20133   61.35838  10.0%     -    2s
     0     0   61.36195    0 1376   68.20133   61.36195  10.0%     -    2s
     0     0   61.44735    0 1271   68.20133   61.44735  9.90%     -    2s
     0     0   61.45367    0 1278   68.20133   61.45367  9.89%     -    2s
     0     0   61.45582    0 1206   68.20133   61.45582  9.89%     -    2s
     0     0   61.58354    0 1260   68.20133   61.58354  9.70%     -    3s
     0     0   61.58638    0 1270   68.20133   61.58638  9.70%     -    3s
     0     0   61.89050    0 1273   68.20133   61.89050  9.25%     -    3s
     0     0   61.90020    0 1274   68.20133   61.90020  9.24%     -    3s
     0     0   61.90020    0 1281   68.20133   61.90020  9.24%     -    3s
     0     0   61.90020    0 1305   68.20133   61.90020  9.24%     -    3s
     0     0   62.05048    0 1333   68.20133   62.05048  9.02%     -    3s
     0     0   62.05290    0 1318   68.20133   62.05290  9.02%     -    3s
     0     0   62.15945    0 1187   68.20133   62.15945  8.86%     -    4s
     0     0   62.16180    0 1242   68.20133   62.16180  8.86%     -    4s
     0     0   62.17166    0 1382   68.20133   62.17166  8.84%     -    4s
     0     0   62.18619    0 1366   68.20133   62.18619  8.82%     -    4s
     0     0   62.18619    0 1359   68.20133   62.18619  8.82%     -    4s
     0     0   62.24968    0 1257   68.20133   62.24968  8.73%     -    4s
     0     0   62.25731    0 1293   68.20133   62.25731  8.72%     -    4s
     0     0   62.25731    0 1287   68.20133   62.25731  8.72%     -    4s
     0     0   62.41103    0 1202   68.20133   62.41103  8.49%     -    5s
     0     0   62.41125    0 1237   68.20133   62.41125  8.49%     -    5s
     0     0   62.51527    0 1295   68.20133   62.51527  8.34%     -    5s
     0     0   62.52715    0 1163   68.20133   62.52715  8.32%     -    5s
     0     2   62.52715    0 1159   68.20133   62.52715  8.32%     -    6s

Cutting planes:
  Gomory: 7
  Zero half: 155
  RLT: 257

Explored 91 nodes (81399 simplex iterations) in 8.00 seconds (6.53 work units)
Thread count was 32 (of 128 available processors)

Solution count 7: 68.2013 72.3678 73.9064 ... 393.608

Optimal solution found (tolerance 1.00e-04)
Best objective 6.820133171192e+01, best bound 6.820133171192e+01, gap 0.0000%
